6 12 4 7 3 2 10 11 8 14 9 13 5 0 1
4 5 7 14 13 8 11 9 6 10 0 3 12 1 2
1 8 9 12 6 11 13 5 0 2 7 10 4 3 14
5 2 9 6 10 0 13 4 7 14 11 8 12 1 3
7 8 6 10 4 9 2 14 12 5 1 13 11 0 3
5 3 12 13 11 4 14 7 2 1 10 0 9 6 8
12 3 7 8 14 6 1 11 4 5 2 10 0 13 9
11 5 0 7 12 13 14 1 2 8 4 3 9 6 10
10 11 6 14 0 1 2 5 12 4 8 7 9 13 3
6 11 9 2 8 0 13 3 10 7 1 12 14 4 5
4 7 13 0 5 12 6 8 14 10 3 1 11 9 2
2 14 0 12 6 10 7 5 8 9 13 1 3 11 4
5 8 10 2 3 6 9 0 13 4 1 11 12 7 14
8 14 4 13 5 6 9 1 12 7 11 10 3 2 0
10 8 12 6 4 1 13 14 11 0 7 3 2 9 5